p cnf 19 17
-14 19 11 13 15 0
1 3 -4 -2 0
3 5 -18 7 0
17 -12 -10 -8 -4 0
9 15 -16 -6 -2 0
-16 -8 -6 -12 0
9 3 -12 5 0
-6 3 5 -2 0
17 2 -12 -1 -8 -19 -18 0
-16 -12 6 7 9 -19 -2 0
-8 1 -6 -10 0
-6 -4 -12 -10 0
4 6 8 11 15 17 -13 -12 -7 -2 0
9 13 -18 -10 0
1 4 9 -18 15 -14 -12 -8 -5 -3 0
-16 17 5 0
1 8 11 12 13 -18 15 -7 -5 0
